54
3 4 13 46 
2 111 90 
3 60 30 67 
2 42 93 
2 35 20 
2 18 120 
3 21 28 71 
3 53 83 65 
3 54 112 62 
3 55 45 116 
3 91 103 10 
2 66 29 
3 1 2 98 
2 117 64 
2 51 96 
3 108 106 105 
2 17 114 
3 3 44 86 
2 73 68 
2 79 22 
2 115 39 
2 31 109 
2 107 32 
2 94 75 
2 11 49 
3 8 34 118 
2 23 77 
3 16 63 85 
1 110 
2 56 104 
3 5 24 88 
2 36 57 
3 76 70 58 
2 92 61 
3 97 33 95 
3 102 101 6 
2 82 9 
2 26 74 
3 80 47 43 
1 19 
2 48 40 
2 38 15 
2 100 7 
2 25 99 
2 37 113 
2 12 41 
1 52 
2 27 59 
3 14 78 72 
2 69 81 
2 87 50 
1 84 
1 119 
1 89 
